p cnf 343 2414
1 0
-2 0
-3 0
-4 0
-5 0
-6 0
-7 0
50 8 0
-50 -8 0
8 9 10 11 12 13 14 0
-8 -9 0
-8 -10 0
-8 -11 0
-8 -12 0
-8 -13 0
-8 -14 0
-9 -10 0
-9 -11 0
-9 -12 0
-9 -13 0
-9 -14 0
-10 -11 0
-10 -12 0
-10 -13 0
-10 -14 0
-11 -12 0
-11 -13 0
-11 -14 0
-12 -13 0
-12 -14 0
-13 -14 0
-8 57 1 0
-8 57 15 0
-8 1 15 0
-9 58 2 0
-9 58 16 0
-9 2 16 0
-10 59 3 0
-10 59 17 0
-10 3 17 0
-11 60 4 0
-11 60 18 0
-11 4 18 0
-12 61 5 0
-12 61 19 0
-12 5 19 0
-13 62 6 0
-13 62 20 0
-13 6 20 0
-14 63 7 0
-14 63 21 0
-14 7 21 0
-8 -57 -1 -15 0
-9 -58 -2 -16 0
-10 -59 -3 -17 0
-11 -60 -4 -18 0
-12 -61 -5 -19 0
-13 -62 -6 -20 0
-14 -63 -7 -21 0
15 16 17 18 19 20 21 0
-15 -16 0
-15 -17 0
-15 -18 0
-15 -19 0
-15 -20 0
-15 -21 0
-16 -17 0
-16 -18 0
-16 -19 0
-16 -20 0
-16 -21 0
-17 -18 0
-17 -19 0
-17 -20 0
-17 -21 0
-18 -19 0
-18 -20 0
-18 -21 0
-19 -20 0
-19 -21 0
-20 -21 0
-15 64 8 0
-15 64 22 0
-15 8 22 0
-16 65 9 0
-16 65 23 0
-16 9 23 0
-17 66 10 0
-17 66 24 0
-17 10 24 0
-18 67 11 0
-18 67 25 0
-18 11 25 0
-19 68 12 0
-19 68 26 0
-19 12 26 0
-20 69 13 0
-20 69 27 0
-20 13 27 0
-21 70 14 0
-21 70 28 0
-21 14 28 0
-15 -64 -8 -22 0
-16 -65 -9 -23 0
-17 -66 -10 -24 0
-18 -67 -11 -25 0
-19 -68 -12 -26 0
-20 -69 -13 -27 0
-21 -70 -14 -28 0
22 23 24 25 26 27 28 0
-22 -23 0
-22 -24 0
-22 -25 0
-22 -26 0
-22 -27 0
-22 -28 0
-23 -24 0
-23 -25 0
-23 -26 0
-23 -27 0
-23 -28 0
-24 -25 0
-24 -26 0
-24 -27 0
-24 -28 0
-25 -26 0
-25 -27 0
-25 -28 0
-26 -27 0
-26 -28 0
-27 -28 0
-22 71 15 0
-22 71 29 0
-22 15 29 0
-23 72 16 0
-23 72 30 0
-23 16 30 0
-24 73 17 0
-24 73 31 0
-24 17 31 0
-25 74 18 0
-25 74 32 0
-25 18 32 0
-26 75 19 0
-26 75 33 0
-26 19 33 0
-27 76 20 0
-27 76 34 0
-27 20 34 0
-28 77 21 0
-28 77 35 0
-28 21 35 0
-22 -71 -15 -29 0
-23 -72 -16 -30 0
-24 -73 -17 -31 0
-25 -74 -18 -32 0
-26 -75 -19 -33 0
-27 -76 -20 -34 0
-28 -77 -21 -35 0
30 0
-29 0
-31 0
-32 0
-33 0
-34 0
-35 0
79 23 37 0
-79 -23 0
-79 -37 0
-23 -37 0
38 0
-36 0
-37 0
-39 0
-40 0
-41 0
-42 0
87 31 45 0
-87 -31 0
-87 -45 0
-31 -45 0
43 44 45 46 47 48 49 0
-43 -44 0
-43 -45 0
-43 -46 0
-43 -47 0
-43 -48 0
-43 -49 0
-44 -45 0
-44 -46 0
-44 -47 0
-44 -48 0
-44 -49 0
-45 -46 0
-45 -47 0
-45 -48 0
-45 -49 0
-46 -47 0
-46 -48 0
-46 -49 0
-47 -48 0
-47 -49 0
-48 -49 0
-43 92 0
-43 36 0
-44 93 0
-44 37 0
-45 94 0
-45 38 0
-46 95 0
-46 39 0
-47 96 0
-47 40 0
-48 97 0
-48 41 0
-49 98 0
-49 42 0
50 51 52 53 54 55 56 0
-50 -51 0
-50 -52 0
-50 -53 0
-50 -54 0
-50 -55 0
-50 -56 0
-51 -52 0
-51 -53 0
-51 -54 0
-51 -55 0
-51 -56 0
-52 -53 0
-52 -54 0
-52 -55 0
-52 -56 0
-53 -54 0
-53 -55 0
-53 -56 0
-54 -55 0
-54 -56 0
-55 -56 0
-50 99 1 0
-50 99 57 0
-50 1 57 0
-51 100 2 0
-51 100 58 0
-51 2 58 0
-52 101 3 0
-52 101 59 0
-52 3 59 0
-53 102 4 0
-53 102 60 0
-53 4 60 0
-54 103 5 0
-54 103 61 0
-54 5 61 0
-55 104 6 0
-55 104 62 0
-55 6 62 0
-56 105 7 0
-56 105 63 0
-56 7 63 0
-50 -99 -1 -57 0
-51 -100 -2 -58 0
-52 -101 -3 -59 0
-53 -102 -4 -60 0
-54 -103 -5 -61 0
-55 -104 -6 -62 0
-56 -105 -7 -63 0
57 58 59 60 61 62 63 0
-57 -58 0
-57 -59 0
-57 -60 0
-57 -61 0
-57 -62 0
-57 -63 0
-58 -59 0
-58 -60 0
-58 -61 0
-58 -62 0
-58 -63 0
-59 -60 0
-59 -61 0
-59 -62 0
-59 -63 0
-60 -61 0
-60 -62 0
-60 -63 0
-61 -62 0
-61 -63 0
-62 -63 0
-57 106 8 64 0
-57 106 8 50 0
-57 106 64 50 0
-57 8 64 50 0
-58 107 9 65 0
-58 107 9 51 0
-58 107 65 51 0
-58 9 65 51 0
-59 108 10 66 0
-59 108 10 52 0
-59 108 66 52 0
-59 10 66 52 0
-60 109 11 67 0
-60 109 11 53 0
-60 109 67 53 0
-60 11 67 53 0
-61 110 12 68 0
-61 110 12 54 0
-61 110 68 54 0
-61 12 68 54 0
-62 111 13 69 0
-62 111 13 55 0
-62 111 69 55 0
-62 13 69 55 0
-63 112 14 70 0
-63 112 14 56 0
-63 112 70 56 0
-63 14 70 56 0
-57 -106 -8 -64 0
-57 -106 -8 -50 0
-57 -106 -64 -50 0
-57 -8 -64 -50 0
-58 -107 -9 -65 0
-58 -107 -9 -51 0
-58 -107 -65 -51 0
-58 -9 -65 -51 0
-59 -108 -10 -66 0
-59 -108 -10 -52 0
-59 -108 -66 -52 0
-59 -10 -66 -52 0
-60 -109 -11 -67 0
-60 -109 -11 -53 0
-60 -109 -67 -53 0
-60 -11 -67 -53 0
-61 -110 -12 -68 0
-61 -110 -12 -54 0
-61 -110 -68 -54 0
-61 -12 -68 -54 0
-62 -111 -13 -69 0
-62 -111 -13 -55 0
-62 -111 -69 -55 0
-62 -13 -69 -55 0
-63 -112 -14 -70 0
-63 -112 -14 -56 0
-63 -112 -70 -56 0
-63 -14 -70 -56 0
67 0
-64 0
-65 0
-66 0
-68 0
-69 0
-70 0
116 18 74 60 0
-116 -18 0
-116 -74 0
-116 -60 0
-18 -74 0
-18 -60 0
-74 -60 0
71 72 73 74 75 76 77 0
-71 -72 0
-71 -73 0
-71 -74 0
-71 -75 0
-71 -76 0
-71 -77 0
-72 -73 0
-72 -74 0
-72 -75 0
-72 -76 0
-72 -77 0
-73 -74 0
-73 -75 0
-73 -76 0
-73 -77 0
-74 -75 0
-74 -76 0
-74 -77 0
-75 -76 0
-75 -77 0
-76 -77 0
-71 120 22 78 0
-71 120 22 64 0
-71 120 78 64 0
-71 22 78 64 0
-72 121 23 79 0
-72 121 23 65 0
-72 121 79 65 0
-72 23 79 65 0
-73 122 24 80 0
-73 122 24 66 0
-73 122 80 66 0
-73 24 80 66 0
-74 123 25 81 0
-74 123 25 67 0
-74 123 81 67 0
-74 25 81 67 0
-75 124 26 82 0
-75 124 26 68 0
-75 124 82 68 0
-75 26 82 68 0
-76 125 27 83 0
-76 125 27 69 0
-76 125 83 69 0
-76 27 83 69 0
-77 126 28 84 0
-77 126 28 70 0
-77 126 84 70 0
-77 28 84 70 0
-71 -120 -22 -78 0
-71 -120 -22 -64 0
-71 -120 -78 -64 0
-71 -22 -78 -64 0
-72 -121 -23 -79 0
-72 -121 -23 -65 0
-72 -121 -79 -65 0
-72 -23 -79 -65 0
-73 -122 -24 -80 0
-73 -122 -24 -66 0
-73 -122 -80 -66 0
-73 -24 -80 -66 0
-74 -123 -25 -81 0
-74 -123 -25 -67 0
-74 -123 -81 -67 0
-74 -25 -81 -67 0
-75 -124 -26 -82 0
-75 -124 -26 -68 0
-75 -124 -82 -68 0
-75 -26 -82 -68 0
-76 -125 -27 -83 0
-76 -125 -27 -69 0
-76 -125 -83 -69 0
-76 -27 -83 -69 0
-77 -126 -28 -84 0
-77 -126 -28 -70 0
-77 -126 -84 -70 0
-77 -28 -84 -70 0
78 79 80 81 82 83 84 0
-78 -79 0
-78 -80 0
-78 -81 0
-78 -82 0
-78 -83 0
-78 -84 0
-79 -80 0
-79 -81 0
-79 -82 0
-79 -83 0
-79 -84 0
-80 -81 0
-80 -82 0
-80 -83 0
-80 -84 0
-81 -82 0
-81 -83 0
-81 -84 0
-82 -83 0
-82 -84 0
-83 -84 0
-78 127 29 85 0
-78 127 29 71 0
-78 127 85 71 0
-78 29 85 71 0
-79 128 30 86 0
-79 128 30 72 0
-79 128 86 72 0
-79 30 86 72 0
-80 129 31 87 0
-80 129 31 73 0
-80 129 87 73 0
-80 31 87 73 0
-81 130 32 88 0
-81 130 32 74 0
-81 130 88 74 0
-81 32 88 74 0
-82 131 33 89 0
-82 131 33 75 0
-82 131 89 75 0
-82 33 89 75 0
-83 132 34 90 0
-83 132 34 76 0
-83 132 90 76 0
-83 34 90 76 0
-84 133 35 91 0
-84 133 35 77 0
-84 133 91 77 0
-84 35 91 77 0
-78 -127 -29 -85 0
-78 -127 -29 -71 0
-78 -127 -85 -71 0
-78 -29 -85 -71 0
-79 -128 -30 -86 0
-79 -128 -30 -72 0
-79 -128 -86 -72 0
-79 -30 -86 -72 0
-80 -129 -31 -87 0
-80 -129 -31 -73 0
-80 -129 -87 -73 0
-80 -31 -87 -73 0
-81 -130 -32 -88 0
-81 -130 -32 -74 0
-81 -130 -88 -74 0
-81 -32 -88 -74 0
-82 -131 -33 -89 0
-82 -131 -33 -75 0
-82 -131 -89 -75 0
-82 -33 -89 -75 0
-83 -132 -34 -90 0
-83 -132 -34 -76 0
-83 -132 -90 -76 0
-83 -34 -90 -76 0
-84 -133 -35 -91 0
-84 -133 -35 -77 0
-84 -133 -91 -77 0
-84 -35 -91 -77 0
86 0
-85 0
-87 0
-88 0
-89 0
-90 0
-91 0
135 37 93 79 0
-135 -37 0
-135 -93 0
-135 -79 0
-37 -93 0
-37 -79 0
-93 -79 0
92 93 94 95 96 97 98 0
-92 -93 0
-92 -94 0
-92 -95 0
-92 -96 0
-92 -97 0
-92 -98 0
-93 -94 0
-93 -95 0
-93 -96 0
-93 -97 0
-93 -98 0
-94 -95 0
-94 -96 0
-94 -97 0
-94 -98 0
-95 -96 0
-95 -97 0
-95 -98 0
-96 -97 0
-96 -98 0
-97 -98 0
-92 141 43 0
-92 141 85 0
-92 43 85 0
-93 142 44 0
-93 142 86 0
-93 44 86 0
-94 143 45 0
-94 143 87 0
-94 45 87 0
-95 144 46 0
-95 144 88 0
-95 46 88 0
-96 145 47 0
-96 145 89 0
-96 47 89 0
-97 146 48 0
-97 146 90 0
-97 48 90 0
-98 147 49 0
-98 147 91 0
-98 49 91 0
-92 -141 -43 -85 0
-93 -142 -44 -86 0
-94 -143 -45 -87 0
-95 -144 -46 -88 0
-96 -145 -47 -89 0
-97 -146 -48 -90 0
-98 -147 -49 -91 0
99 100 101 102 103 104 105 0
-99 -100 0
-99 -101 0
-99 -102 0
-99 -103 0
-99 -104 0
-99 -105 0
-100 -101 0
-100 -102 0
-100 -103 0
-100 -104 0
-100 -105 0
-101 -102 0
-101 -103 0
-101 -104 0
-101 -105 0
-102 -103 0
-102 -104 0
-102 -105 0
-103 -104 0
-103 -105 0
-104 -105 0
-99 148 50 0
-99 148 106 0
-99 50 106 0
-100 149 51 0
-100 149 107 0
-100 51 107 0
-101 150 52 0
-101 150 108 0
-101 52 108 0
-102 151 53 0
-102 151 109 0
-102 53 109 0
-103 152 54 0
-103 152 110 0
-103 54 110 0
-104 153 55 0
-104 153 111 0
-104 55 111 0
-105 154 56 0
-105 154 112 0
-105 56 112 0
-99 -148 -50 -106 0
-100 -149 -51 -107 0
-101 -150 -52 -108 0
-102 -151 -53 -109 0
-103 -152 -54 -110 0
-104 -153 -55 -111 0
-105 -154 -56 -112 0
106 107 108 109 110 111 112 0
-106 -107 0
-106 -108 0
-106 -109 0
-106 -110 0
-106 -111 0
-106 -112 0
-107 -108 0
-107 -109 0
-107 -110 0
-107 -111 0
-107 -112 0
-108 -109 0
-108 -110 0
-108 -111 0
-108 -112 0
-109 -110 0
-109 -111 0
-109 -112 0
-110 -111 0
-110 -112 0
-111 -112 0
-106 155 57 113 0
-106 155 57 99 0
-106 155 113 99 0
-106 57 113 99 0
-107 156 58 114 0
-107 156 58 100 0
-107 156 114 100 0
-107 58 114 100 0
-108 157 59 115 0
-108 157 59 101 0
-108 157 115 101 0
-108 59 115 101 0
-109 158 60 116 0
-109 158 60 102 0
-109 158 116 102 0
-109 60 116 102 0
-110 159 61 117 0
-110 159 61 103 0
-110 159 117 103 0
-110 61 117 103 0
-111 160 62 118 0
-111 160 62 104 0
-111 160 118 104 0
-111 62 118 104 0
-112 161 63 119 0
-112 161 63 105 0
-112 161 119 105 0
-112 63 119 105 0
-106 -155 -57 -113 0
-106 -155 -57 -99 0
-106 -155 -113 -99 0
-106 -57 -113 -99 0
-107 -156 -58 -114 0
-107 -156 -58 -100 0
-107 -156 -114 -100 0
-107 -58 -114 -100 0
-108 -157 -59 -115 0
-108 -157 -59 -101 0
-108 -157 -115 -101 0
-108 -59 -115 -101 0
-109 -158 -60 -116 0
-109 -158 -60 -102 0
-109 -158 -116 -102 0
-109 -60 -116 -102 0
-110 -159 -61 -117 0
-110 -159 -61 -103 0
-110 -159 -117 -103 0
-110 -61 -117 -103 0
-111 -160 -62 -118 0
-111 -160 -62 -104 0
-111 -160 -118 -104 0
-111 -62 -118 -104 0
-112 -161 -63 -119 0
-112 -161 -63 -105 0
-112 -161 -119 -105 0
-112 -63 -119 -105 0
113 114 115 116 117 118 119 0
-113 -114 0
-113 -115 0
-113 -116 0
-113 -117 0
-113 -118 0
-113 -119 0
-114 -115 0
-114 -116 0
-114 -117 0
-114 -118 0
-114 -119 0
-115 -116 0
-115 -117 0
-115 -118 0
-115 -119 0
-116 -117 0
-116 -118 0
-116 -119 0
-117 -118 0
-117 -119 0
-118 -119 0
-113 162 64 120 0
-113 162 64 106 0
-113 162 120 106 0
-113 64 120 106 0
-114 163 65 121 0
-114 163 65 107 0
-114 163 121 107 0
-114 65 121 107 0
-115 164 66 122 0
-115 164 66 108 0
-115 164 122 108 0
-115 66 122 108 0
-116 165 67 123 0
-116 165 67 109 0
-116 165 123 109 0
-116 67 123 109 0
-117 166 68 124 0
-117 166 68 110 0
-117 166 124 110 0
-117 68 124 110 0
-118 167 69 125 0
-118 167 69 111 0
-118 167 125 111 0
-118 69 125 111 0
-119 168 70 126 0
-119 168 70 112 0
-119 168 126 112 0
-119 70 126 112 0
-113 -162 -64 -120 0
-113 -162 -64 -106 0
-113 -162 -120 -106 0
-113 -64 -120 -106 0
-114 -163 -65 -121 0
-114 -163 -65 -107 0
-114 -163 -121 -107 0
-114 -65 -121 -107 0
-115 -164 -66 -122 0
-115 -164 -66 -108 0
-115 -164 -122 -108 0
-115 -66 -122 -108 0
-116 -165 -67 -123 0
-116 -165 -67 -109 0
-116 -165 -123 -109 0
-116 -67 -123 -109 0
-117 -166 -68 -124 0
-117 -166 -68 -110 0
-117 -166 -124 -110 0
-117 -68 -124 -110 0
-118 -167 -69 -125 0
-118 -167 -69 -111 0
-118 -167 -125 -111 0
-118 -69 -125 -111 0
-119 -168 -70 -126 0
-119 -168 -70 -112 0
-119 -168 -126 -112 0
-119 -70 -126 -112 0
120 121 122 123 124 125 126 0
-120 -121 0
-120 -122 0
-120 -123 0
-120 -124 0
-120 -125 0
-120 -126 0
-121 -122 0
-121 -123 0
-121 -124 0
-121 -125 0
-121 -126 0
-122 -123 0
-122 -124 0
-122 -125 0
-122 -126 0
-123 -124 0
-123 -125 0
-123 -126 0
-124 -125 0
-124 -126 0
-125 -126 0
-120 169 71 127 0
-120 169 71 113 0
-120 169 127 113 0
-120 71 127 113 0
-121 170 72 128 0
-121 170 72 114 0
-121 170 128 114 0
-121 72 128 114 0
-122 171 73 129 0
-122 171 73 115 0
-122 171 129 115 0
-122 73 129 115 0
-123 172 74 130 0
-123 172 74 116 0
-123 172 130 116 0
-123 74 130 116 0
-124 173 75 131 0
-124 173 75 117 0
-124 173 131 117 0
-124 75 131 117 0
-125 174 76 132 0
-125 174 76 118 0
-125 174 132 118 0
-125 76 132 118 0
-126 175 77 133 0
-126 175 77 119 0
-126 175 133 119 0
-126 77 133 119 0
-120 -169 -71 -127 0
-120 -169 -71 -113 0
-120 -169 -127 -113 0
-120 -71 -127 -113 0
-121 -170 -72 -128 0
-121 -170 -72 -114 0
-121 -170 -128 -114 0
-121 -72 -128 -114 0
-122 -171 -73 -129 0
-122 -171 -73 -115 0
-122 -171 -129 -115 0
-122 -73 -129 -115 0
-123 -172 -74 -130 0
-123 -172 -74 -116 0
-123 -172 -130 -116 0
-123 -74 -130 -116 0
-124 -173 -75 -131 0
-124 -173 -75 -117 0
-124 -173 -131 -117 0
-124 -75 -131 -117 0
-125 -174 -76 -132 0
-125 -174 -76 -118 0
-125 -174 -132 -118 0
-125 -76 -132 -118 0
-126 -175 -77 -133 0
-126 -175 -77 -119 0
-126 -175 -133 -119 0
-126 -77 -133 -119 0
127 128 129 130 131 132 133 0
-127 -128 0
-127 -129 0
-127 -130 0
-127 -131 0
-127 -132 0
-127 -133 0
-128 -129 0
-128 -130 0
-128 -131 0
-128 -132 0
-128 -133 0
-129 -130 0
-129 -131 0
-129 -132 0
-129 -133 0
-130 -131 0
-130 -132 0
-130 -133 0
-131 -132 0
-131 -133 0
-132 -133 0
-127 176 78 134 0
-127 176 78 120 0
-127 176 134 120 0
-127 78 134 120 0
-128 177 79 135 0
-128 177 79 121 0
-128 177 135 121 0
-128 79 135 121 0
-129 178 80 136 0
-129 178 80 122 0
-129 178 136 122 0
-129 80 136 122 0
-130 179 81 137 0
-130 179 81 123 0
-130 179 137 123 0
-130 81 137 123 0
-131 180 82 138 0
-131 180 82 124 0
-131 180 138 124 0
-131 82 138 124 0
-132 181 83 139 0
-132 181 83 125 0
-132 181 139 125 0
-132 83 139 125 0
-133 182 84 140 0
-133 182 84 126 0
-133 182 140 126 0
-133 84 140 126 0
-127 -176 -78 -134 0
-127 -176 -78 -120 0
-127 -176 -134 -120 0
-127 -78 -134 -120 0
-128 -177 -79 -135 0
-128 -177 -79 -121 0
-128 -177 -135 -121 0
-128 -79 -135 -121 0
-129 -178 -80 -136 0
-129 -178 -80 -122 0
-129 -178 -136 -122 0
-129 -80 -136 -122 0
-130 -179 -81 -137 0
-130 -179 -81 -123 0
-130 -179 -137 -123 0
-130 -81 -137 -123 0
-131 -180 -82 -138 0
-131 -180 -82 -124 0
-131 -180 -138 -124 0
-131 -82 -138 -124 0
-132 -181 -83 -139 0
-132 -181 -83 -125 0
-132 -181 -139 -125 0
-132 -83 -139 -125 0
-133 -182 -84 -140 0
-133 -182 -84 -126 0
-133 -182 -140 -126 0
-133 -84 -140 -126 0
138 0
-134 0
-135 0
-136 0
-137 0
-139 0
-140 0
187 89 145 131 0
-187 -89 0
-187 -145 0
-187 -131 0
-89 -145 0
-89 -131 0
-145 -131 0
141 142 143 144 145 146 147 0
-141 -142 0
-141 -143 0
-141 -144 0
-141 -145 0
-141 -146 0
-141 -147 0
-142 -143 0
-142 -144 0
-142 -145 0
-142 -146 0
-142 -147 0
-143 -144 0
-143 -145 0
-143 -146 0
-143 -147 0
-144 -145 0
-144 -146 0
-144 -147 0
-145 -146 0
-145 -147 0
-146 -147 0
-141 190 92 0
-141 190 134 0
-141 92 134 0
-142 191 93 0
-142 191 135 0
-142 93 135 0
-143 192 94 0
-143 192 136 0
-143 94 136 0
-144 193 95 0
-144 193 137 0
-144 95 137 0
-145 194 96 0
-145 194 138 0
-145 96 138 0
-146 195 97 0
-146 195 139 0
-146 97 139 0
-147 196 98 0
-147 196 140 0
-147 98 140 0
-141 -190 -92 -134 0
-142 -191 -93 -135 0
-143 -192 -94 -136 0
-144 -193 -95 -137 0
-145 -194 -96 -138 0
-146 -195 -97 -139 0
-147 -196 -98 -140 0
148 0
-149 0
-150 0
-151 0
-152 0
-153 0
-154 0
197 99 155 0
-197 -99 0
-197 -155 0
-99 -155 0
160 0
-155 0
-156 0
-157 0
-158 0
-159 0
-161 0
209 111 167 153 0
-209 -111 0
-209 -167 0
-209 -153 0
-111 -167 0
-111 -153 0
-167 -153 0
162 163 164 165 166 167 168 0
-162 -163 0
-162 -164 0
-162 -165 0
-162 -166 0
-162 -167 0
-162 -168 0
-163 -164 0
-163 -165 0
-163 -166 0
-163 -167 0
-163 -168 0
-164 -165 0
-164 -166 0
-164 -167 0
-164 -168 0
-165 -166 0
-165 -167 0
-165 -168 0
-166 -167 0
-166 -168 0
-167 -168 0
-162 211 113 169 0
-162 211 113 155 0
-162 211 169 155 0
-162 113 169 155 0
-163 212 114 170 0
-163 212 114 156 0
-163 212 170 156 0
-163 114 170 156 0
-164 213 115 171 0
-164 213 115 157 0
-164 213 171 157 0
-164 115 171 157 0
-165 214 116 172 0
-165 214 116 158 0
-165 214 172 158 0
-165 116 172 158 0
-166 215 117 173 0
-166 215 117 159 0
-166 215 173 159 0
-166 117 173 159 0
-167 216 118 174 0
-167 216 118 160 0
-167 216 174 160 0
-167 118 174 160 0
-168 217 119 175 0
-168 217 119 161 0
-168 217 175 161 0
-168 119 175 161 0
-162 -211 -113 -169 0
-162 -211 -113 -155 0
-162 -211 -169 -155 0
-162 -113 -169 -155 0
-163 -212 -114 -170 0
-163 -212 -114 -156 0
-163 -212 -170 -156 0
-163 -114 -170 -156 0
-164 -213 -115 -171 0
-164 -213 -115 -157 0
-164 -213 -171 -157 0
-164 -115 -171 -157 0
-165 -214 -116 -172 0
-165 -214 -116 -158 0
-165 -214 -172 -158 0
-165 -116 -172 -158 0
-166 -215 -117 -173 0
-166 -215 -117 -159 0
-166 -215 -173 -159 0
-166 -117 -173 -159 0
-167 -216 -118 -174 0
-167 -216 -118 -160 0
-167 -216 -174 -160 0
-167 -118 -174 -160 0
-168 -217 -119 -175 0
-168 -217 -119 -161 0
-168 -217 -175 -161 0
-168 -119 -175 -161 0
172 0
-169 0
-170 0
-171 0
-173 0
-174 0
-175 0
221 123 179 165 0
-221 -123 0
-221 -179 0
-221 -165 0
-123 -179 0
-123 -165 0
-179 -165 0
176 177 178 179 180 181 182 0
-176 -177 0
-176 -178 0
-176 -179 0
-176 -180 0
-176 -181 0
-176 -182 0
-177 -178 0
-177 -179 0
-177 -180 0
-177 -181 0
-177 -182 0
-178 -179 0
-178 -180 0
-178 -181 0
-178 -182 0
-179 -180 0
-179 -181 0
-179 -182 0
-180 -181 0
-180 -182 0
-181 -182 0
-176 225 127 183 0
-176 225 127 169 0
-176 225 183 169 0
-176 127 183 169 0
-177 226 128 184 0
-177 226 128 170 0
-177 226 184 170 0
-177 128 184 170 0
-178 227 129 185 0
-178 227 129 171 0
-178 227 185 171 0
-178 129 185 171 0
-179 228 130 186 0
-179 228 130 172 0
-179 228 186 172 0
-179 130 186 172 0
-180 229 131 187 0
-180 229 131 173 0
-180 229 187 173 0
-180 131 187 173 0
-181 230 132 188 0
-181 230 132 174 0
-181 230 188 174 0
-181 132 188 174 0
-182 231 133 189 0
-182 231 133 175 0
-182 231 189 175 0
-182 133 189 175 0
-176 -225 -127 -183 0
-176 -225 -127 -169 0
-176 -225 -183 -169 0
-176 -127 -183 -169 0
-177 -226 -128 -184 0
-177 -226 -128 -170 0
-177 -226 -184 -170 0
-177 -128 -184 -170 0
-178 -227 -129 -185 0
-178 -227 -129 -171 0
-178 -227 -185 -171 0
-178 -129 -185 -171 0
-179 -228 -130 -186 0
-179 -228 -130 -172 0
-179 -228 -186 -172 0
-179 -130 -186 -172 0
-180 -229 -131 -187 0
-180 -229 -131 -173 0
-180 -229 -187 -173 0
-180 -131 -187 -173 0
-181 -230 -132 -188 0
-181 -230 -132 -174 0
-181 -230 -188 -174 0
-181 -132 -188 -174 0
-182 -231 -133 -189 0
-182 -231 -133 -175 0
-182 -231 -189 -175 0
-182 -133 -189 -175 0
183 184 185 186 187 188 189 0
-183 -184 0
-183 -185 0
-183 -186 0
-183 -187 0
-183 -188 0
-183 -189 0
-184 -185 0
-184 -186 0
-184 -187 0
-184 -188 0
-184 -189 0
-185 -186 0
-185 -187 0
-185 -188 0
-185 -189 0
-186 -187 0
-186 -188 0
-186 -189 0
-187 -188 0
-187 -189 0
-188 -189 0
-183 232 134 190 0
-183 232 134 176 0
-183 232 190 176 0
-183 134 190 176 0
-184 233 135 191 0
-184 233 135 177 0
-184 233 191 177 0
-184 135 191 177 0
-185 234 136 192 0
-185 234 136 178 0
-185 234 192 178 0
-185 136 192 178 0
-186 235 137 193 0
-186 235 137 179 0
-186 235 193 179 0
-186 137 193 179 0
-187 236 138 194 0
-187 236 138 180 0
-187 236 194 180 0
-187 138 194 180 0
-188 237 139 195 0
-188 237 139 181 0
-188 237 195 181 0
-188 139 195 181 0
-189 238 140 196 0
-189 238 140 182 0
-189 238 196 182 0
-189 140 196 182 0
-183 -232 -134 -190 0
-183 -232 -134 -176 0
-183 -232 -190 -176 0
-183 -134 -190 -176 0
-184 -233 -135 -191 0
-184 -233 -135 -177 0
-184 -233 -191 -177 0
-184 -135 -191 -177 0
-185 -234 -136 -192 0
-185 -234 -136 -178 0
-185 -234 -192 -178 0
-185 -136 -192 -178 0
-186 -235 -137 -193 0
-186 -235 -137 -179 0
-186 -235 -193 -179 0
-186 -137 -193 -179 0
-187 -236 -138 -194 0
-187 -236 -138 -180 0
-187 -236 -194 -180 0
-187 -138 -194 -180 0
-188 -237 -139 -195 0
-188 -237 -139 -181 0
-188 -237 -195 -181 0
-188 -139 -195 -181 0
-189 -238 -140 -196 0
-189 -238 -140 -182 0
-189 -238 -196 -182 0
-189 -140 -196 -182 0
190 191 192 193 194 195 196 0
-190 -191 0
-190 -192 0
-190 -193 0
-190 -194 0
-190 -195 0
-190 -196 0
-191 -192 0
-191 -193 0
-191 -194 0
-191 -195 0
-191 -196 0
-192 -193 0
-192 -194 0
-192 -195 0
-192 -196 0
-193 -194 0
-193 -195 0
-193 -196 0
-194 -195 0
-194 -196 0
-195 -196 0
-190 239 141 0
-190 239 183 0
-190 141 183 0
-191 240 142 0
-191 240 184 0
-191 142 184 0
-192 241 143 0
-192 241 185 0
-192 143 185 0
-193 242 144 0
-193 242 186 0
-193 144 186 0
-194 243 145 0
-194 243 187 0
-194 145 187 0
-195 244 146 0
-195 244 188 0
-195 146 188 0
-196 245 147 0
-196 245 189 0
-196 147 189 0
-190 -239 -141 -183 0
-191 -240 -142 -184 0
-192 -241 -143 -185 0
-193 -242 -144 -186 0
-194 -243 -145 -187 0
-195 -244 -146 -188 0
-196 -245 -147 -189 0
201 0
-197 0
-198 0
-199 0
-200 0
-202 0
-203 0
250 152 208 0
-250 -152 0
-250 -208 0
-152 -208 0
204 205 206 207 208 209 210 0
-204 -205 0
-204 -206 0
-204 -207 0
-204 -208 0
-204 -209 0
-204 -210 0
-205 -206 0
-205 -207 0
-205 -208 0
-205 -209 0
-205 -210 0
-206 -207 0
-206 -208 0
-206 -209 0
-206 -210 0
-207 -208 0
-207 -209 0
-207 -210 0
-208 -209 0
-208 -210 0
-209 -210 0
-204 253 155 211 0
-204 253 155 197 0
-204 253 211 197 0
-204 155 211 197 0
-205 254 156 212 0
-205 254 156 198 0
-205 254 212 198 0
-205 156 212 198 0
-206 255 157 213 0
-206 255 157 199 0
-206 255 213 199 0
-206 157 213 199 0
-207 256 158 214 0
-207 256 158 200 0
-207 256 214 200 0
-207 158 214 200 0
-208 257 159 215 0
-208 257 159 201 0
-208 257 215 201 0
-208 159 215 201 0
-209 258 160 216 0
-209 258 160 202 0
-209 258 216 202 0
-209 160 216 202 0
-210 259 161 217 0
-210 259 161 203 0
-210 259 217 203 0
-210 161 217 203 0
-204 -253 -155 -211 0
-204 -253 -155 -197 0
-204 -253 -211 -197 0
-204 -155 -211 -197 0
-205 -254 -156 -212 0
-205 -254 -156 -198 0
-205 -254 -212 -198 0
-205 -156 -212 -198 0
-206 -255 -157 -213 0
-206 -255 -157 -199 0
-206 -255 -213 -199 0
-206 -157 -213 -199 0
-207 -256 -158 -214 0
-207 -256 -158 -200 0
-207 -256 -214 -200 0
-207 -158 -214 -200 0
-208 -257 -159 -215 0
-208 -257 -159 -201 0
-208 -257 -215 -201 0
-208 -159 -215 -201 0
-209 -258 -160 -216 0
-209 -258 -160 -202 0
-209 -258 -216 -202 0
-209 -160 -216 -202 0
-210 -259 -161 -217 0
-210 -259 -161 -203 0
-210 -259 -217 -203 0
-210 -161 -217 -203 0
211 212 213 214 215 216 217 0
-211 -212 0
-211 -213 0
-211 -214 0
-211 -215 0
-211 -216 0
-211 -217 0
-212 -213 0
-212 -214 0
-212 -215 0
-212 -216 0
-212 -217 0
-213 -214 0
-213 -215 0
-213 -216 0
-213 -217 0
-214 -215 0
-214 -216 0
-214 -217 0
-215 -216 0
-215 -217 0
-216 -217 0
-211 260 162 218 0
-211 260 162 204 0
-211 260 218 204 0
-211 162 218 204 0
-212 261 163 219 0
-212 261 163 205 0
-212 261 219 205 0
-212 163 219 205 0
-213 262 164 220 0
-213 262 164 206 0
-213 262 220 206 0
-213 164 220 206 0
-214 263 165 221 0
-214 263 165 207 0
-214 263 221 207 0
-214 165 221 207 0
-215 264 166 222 0
-215 264 166 208 0
-215 264 222 208 0
-215 166 222 208 0
-216 265 167 223 0
-216 265 167 209 0
-216 265 223 209 0
-216 167 223 209 0
-217 266 168 224 0
-217 266 168 210 0
-217 266 224 210 0
-217 168 224 210 0
-211 -260 -162 -218 0
-211 -260 -162 -204 0
-211 -260 -218 -204 0
-211 -162 -218 -204 0
-212 -261 -163 -219 0
-212 -261 -163 -205 0
-212 -261 -219 -205 0
-212 -163 -219 -205 0
-213 -262 -164 -220 0
-213 -262 -164 -206 0
-213 -262 -220 -206 0
-213 -164 -220 -206 0
-214 -263 -165 -221 0
-214 -263 -165 -207 0
-214 -263 -221 -207 0
-214 -165 -221 -207 0
-215 -264 -166 -222 0
-215 -264 -166 -208 0
-215 -264 -222 -208 0
-215 -166 -222 -208 0
-216 -265 -167 -223 0
-216 -265 -167 -209 0
-216 -265 -223 -209 0
-216 -167 -223 -209 0
-217 -266 -168 -224 0
-217 -266 -168 -210 0
-217 -266 -224 -210 0
-217 -168 -224 -210 0
223 0
-218 0
-219 0
-220 0
-221 0
-222 0
-224 0
272 174 230 216 0
-272 -174 0
-272 -230 0
-272 -216 0
-174 -230 0
-174 -216 0
-230 -216 0
225 226 227 228 229 230 231 0
-225 -226 0
-225 -227 0
-225 -228 0
-225 -229 0
-225 -230 0
-225 -231 0
-226 -227 0
-226 -228 0
-226 -229 0
-226 -230 0
-226 -231 0
-227 -228 0
-227 -229 0
-227 -230 0
-227 -231 0
-228 -229 0
-228 -230 0
-228 -231 0
-229 -230 0
-229 -231 0
-230 -231 0
-225 274 176 232 0
-225 274 176 218 0
-225 274 232 218 0
-225 176 232 218 0
-226 275 177 233 0
-226 275 177 219 0
-226 275 233 219 0
-226 177 233 219 0
-227 276 178 234 0
-227 276 178 220 0
-227 276 234 220 0
-227 178 234 220 0
-228 277 179 235 0
-228 277 179 221 0
-228 277 235 221 0
-228 179 235 221 0
-229 278 180 236 0
-229 278 180 222 0
-229 278 236 222 0
-229 180 236 222 0
-230 279 181 237 0
-230 279 181 223 0
-230 279 237 223 0
-230 181 237 223 0
-231 280 182 238 0
-231 280 182 224 0
-231 280 238 224 0
-231 182 238 224 0
-225 -274 -176 -232 0
-225 -274 -176 -218 0
-225 -274 -232 -218 0
-225 -176 -232 -218 0
-226 -275 -177 -233 0
-226 -275 -177 -219 0
-226 -275 -233 -219 0
-226 -177 -233 -219 0
-227 -276 -178 -234 0
-227 -276 -178 -220 0
-227 -276 -234 -220 0
-227 -178 -234 -220 0
-228 -277 -179 -235 0
-228 -277 -179 -221 0
-228 -277 -235 -221 0
-228 -179 -235 -221 0
-229 -278 -180 -236 0
-229 -278 -180 -222 0
-229 -278 -236 -222 0
-229 -180 -236 -222 0
-230 -279 -181 -237 0
-230 -279 -181 -223 0
-230 -279 -237 -223 0
-230 -181 -237 -223 0
-231 -280 -182 -238 0
-231 -280 -182 -224 0
-231 -280 -238 -224 0
-231 -182 -238 -224 0
232 233 234 235 236 237 238 0
-232 -233 0
-232 -234 0
-232 -235 0
-232 -236 0
-232 -237 0
-232 -238 0
-233 -234 0
-233 -235 0
-233 -236 0
-233 -237 0
-233 -238 0
-234 -235 0
-234 -236 0
-234 -237 0
-234 -238 0
-235 -236 0
-235 -237 0
-235 -238 0
-236 -237 0
-236 -238 0
-237 -238 0
-232 281 183 239 0
-232 281 183 225 0
-232 281 239 225 0
-232 183 239 225 0
-233 282 184 240 0
-233 282 184 226 0
-233 282 240 226 0
-233 184 240 226 0
-234 283 185 241 0
-234 283 185 227 0
-234 283 241 227 0
-234 185 241 227 0
-235 284 186 242 0
-235 284 186 228 0
-235 284 242 228 0
-235 186 242 228 0
-236 285 187 243 0
-236 285 187 229 0
-236 285 243 229 0
-236 187 243 229 0
-237 286 188 244 0
-237 286 188 230 0
-237 286 244 230 0
-237 188 244 230 0
-238 287 189 245 0
-238 287 189 231 0
-238 287 245 231 0
-238 189 245 231 0
-232 -281 -183 -239 0
-232 -281 -183 -225 0
-232 -281 -239 -225 0
-232 -183 -239 -225 0
-233 -282 -184 -240 0
-233 -282 -184 -226 0
-233 -282 -240 -226 0
-233 -184 -240 -226 0
-234 -283 -185 -241 0
-234 -283 -185 -227 0
-234 -283 -241 -227 0
-234 -185 -241 -227 0
-235 -284 -186 -242 0
-235 -284 -186 -228 0
-235 -284 -242 -228 0
-235 -186 -242 -228 0
-236 -285 -187 -243 0
-236 -285 -187 -229 0
-236 -285 -243 -229 0
-236 -187 -243 -229 0
-237 -286 -188 -244 0
-237 -286 -188 -230 0
-237 -286 -244 -230 0
-237 -188 -244 -230 0
-238 -287 -189 -245 0
-238 -287 -189 -231 0
-238 -287 -245 -231 0
-238 -189 -245 -231 0
239 240 241 242 243 244 245 0
-239 -240 0
-239 -241 0
-239 -242 0
-239 -243 0
-239 -244 0
-239 -245 0
-240 -241 0
-240 -242 0
-240 -243 0
-240 -244 0
-240 -245 0
-241 -242 0
-241 -243 0
-241 -244 0
-241 -245 0
-242 -243 0
-242 -244 0
-242 -245 0
-243 -244 0
-243 -245 0
-244 -245 0
-239 288 190 0
-239 288 232 0
-239 190 232 0
-240 289 191 0
-240 289 233 0
-240 191 233 0
-241 290 192 0
-241 290 234 0
-241 192 234 0
-242 291 193 0
-242 291 235 0
-242 193 235 0
-243 292 194 0
-243 292 236 0
-243 194 236 0
-244 293 195 0
-244 293 237 0
-244 195 237 0
-245 294 196 0
-245 294 238 0
-245 196 238 0
-239 -288 -190 -232 0
-240 -289 -191 -233 0
-241 -290 -192 -234 0
-242 -291 -193 -235 0
-243 -292 -194 -236 0
-244 -293 -195 -237 0
-245 -294 -196 -238 0
246 247 248 249 250 251 252 0
-246 -247 0
-246 -248 0
-246 -249 0
-246 -250 0
-246 -251 0
-246 -252 0
-247 -248 0
-247 -249 0
-247 -250 0
-247 -251 0
-247 -252 0
-248 -249 0
-248 -250 0
-248 -251 0
-248 -252 0
-249 -250 0
-249 -251 0
-249 -252 0
-250 -251 0
-250 -252 0
-251 -252 0
-246 295 197 0
-246 295 253 0
-246 197 253 0
-247 296 198 0
-247 296 254 0
-247 198 254 0
-248 297 199 0
-248 297 255 0
-248 199 255 0
-249 298 200 0
-249 298 256 0
-249 200 256 0
-250 299 201 0
-250 299 257 0
-250 201 257 0
-251 300 202 0
-251 300 258 0
-251 202 258 0
-252 301 203 0
-252 301 259 0
-252 203 259 0
-246 -295 -197 -253 0
-247 -296 -198 -254 0
-248 -297 -199 -255 0
-249 -298 -200 -256 0
-250 -299 -201 -257 0
-251 -300 -202 -258 0
-252 -301 -203 -259 0
259 0
-253 0
-254 0
-255 0
-256 0
-257 0
-258 0
308 210 266 252 0
-308 -210 0
-308 -266 0
-308 -252 0
-210 -266 0
-210 -252 0
-266 -252 0
260 261 262 263 264 265 266 0
-260 -261 0
-260 -262 0
-260 -263 0
-260 -264 0
-260 -265 0
-260 -266 0
-261 -262 0
-261 -263 0
-261 -264 0
-261 -265 0
-261 -266 0
-262 -263 0
-262 -264 0
-262 -265 0
-262 -266 0
-263 -264 0
-263 -265 0
-263 -266 0
-264 -265 0
-264 -266 0
-265 -266 0
-260 309 211 267 0
-260 309 211 253 0
-260 309 267 253 0
-260 211 267 253 0
-261 310 212 268 0
-261 310 212 254 0
-261 310 268 254 0
-261 212 268 254 0
-262 311 213 269 0
-262 311 213 255 0
-262 311 269 255 0
-262 213 269 255 0
-263 312 214 270 0
-263 312 214 256 0
-263 312 270 256 0
-263 214 270 256 0
-264 313 215 271 0
-264 313 215 257 0
-264 313 271 257 0
-264 215 271 257 0
-265 314 216 272 0
-265 314 216 258 0
-265 314 272 258 0
-265 216 272 258 0
-266 315 217 273 0
-266 315 217 259 0
-266 315 273 259 0
-266 217 273 259 0
-260 -309 -211 -267 0
-260 -309 -211 -253 0
-260 -309 -267 -253 0
-260 -211 -267 -253 0
-261 -310 -212 -268 0
-261 -310 -212 -254 0
-261 -310 -268 -254 0
-261 -212 -268 -254 0
-262 -311 -213 -269 0
-262 -311 -213 -255 0
-262 -311 -269 -255 0
-262 -213 -269 -255 0
-263 -312 -214 -270 0
-263 -312 -214 -256 0
-263 -312 -270 -256 0
-263 -214 -270 -256 0
-264 -313 -215 -271 0
-264 -313 -215 -257 0
-264 -313 -271 -257 0
-264 -215 -271 -257 0
-265 -314 -216 -272 0
-265 -314 -216 -258 0
-265 -314 -272 -258 0
-265 -216 -272 -258 0
-266 -315 -217 -273 0
-266 -315 -217 -259 0
-266 -315 -273 -259 0
-266 -217 -273 -259 0
267 268 269 270 271 272 273 0
-267 -268 0
-267 -269 0
-267 -270 0
-267 -271 0
-267 -272 0
-267 -273 0
-268 -269 0
-268 -270 0
-268 -271 0
-268 -272 0
-268 -273 0
-269 -270 0
-269 -271 0
-269 -272 0
-269 -273 0
-270 -271 0
-270 -272 0
-270 -273 0
-271 -272 0
-271 -273 0
-272 -273 0
-267 316 218 274 0
-267 316 218 260 0
-267 316 274 260 0
-267 218 274 260 0
-268 317 219 275 0
-268 317 219 261 0
-268 317 275 261 0
-268 219 275 261 0
-269 318 220 276 0
-269 318 220 262 0
-269 318 276 262 0
-269 220 276 262 0
-270 319 221 277 0
-270 319 221 263 0
-270 319 277 263 0
-270 221 277 263 0
-271 320 222 278 0
-271 320 222 264 0
-271 320 278 264 0
-271 222 278 264 0
-272 321 223 279 0
-272 321 223 265 0
-272 321 279 265 0
-272 223 279 265 0
-273 322 224 280 0
-273 322 224 266 0
-273 322 280 266 0
-273 224 280 266 0
-267 -316 -218 -274 0
-267 -316 -218 -260 0
-267 -316 -274 -260 0
-267 -218 -274 -260 0
-268 -317 -219 -275 0
-268 -317 -219 -261 0
-268 -317 -275 -261 0
-268 -219 -275 -261 0
-269 -318 -220 -276 0
-269 -318 -220 -262 0
-269 -318 -276 -262 0
-269 -220 -276 -262 0
-270 -319 -221 -277 0
-270 -319 -221 -263 0
-270 -319 -277 -263 0
-270 -221 -277 -263 0
-271 -320 -222 -278 0
-271 -320 -222 -264 0
-271 -320 -278 -264 0
-271 -222 -278 -264 0
-272 -321 -223 -279 0
-272 -321 -223 -265 0
-272 -321 -279 -265 0
-272 -223 -279 -265 0
-273 -322 -224 -280 0
-273 -322 -224 -266 0
-273 -322 -280 -266 0
-273 -224 -280 -266 0
274 275 276 277 278 279 280 0
-274 -275 0
-274 -276 0
-274 -277 0
-274 -278 0
-274 -279 0
-274 -280 0
-275 -276 0
-275 -277 0
-275 -278 0
-275 -279 0
-275 -280 0
-276 -277 0
-276 -278 0
-276 -279 0
-276 -280 0
-277 -278 0
-277 -279 0
-277 -280 0
-278 -279 0
-278 -280 0
-279 -280 0
-274 323 225 281 0
-274 323 225 267 0
-274 323 281 267 0
-274 225 281 267 0
-275 324 226 282 0
-275 324 226 268 0
-275 324 282 268 0
-275 226 282 268 0
-276 325 227 283 0
-276 325 227 269 0
-276 325 283 269 0
-276 227 283 269 0
-277 326 228 284 0
-277 326 228 270 0
-277 326 284 270 0
-277 228 284 270 0
-278 327 229 285 0
-278 327 229 271 0
-278 327 285 271 0
-278 229 285 271 0
-279 328 230 286 0
-279 328 230 272 0
-279 328 286 272 0
-279 230 286 272 0
-280 329 231 287 0
-280 329 231 273 0
-280 329 287 273 0
-280 231 287 273 0
-274 -323 -225 -281 0
-274 -323 -225 -267 0
-274 -323 -281 -267 0
-274 -225 -281 -267 0
-275 -324 -226 -282 0
-275 -324 -226 -268 0
-275 -324 -282 -268 0
-275 -226 -282 -268 0
-276 -325 -227 -283 0
-276 -325 -227 -269 0
-276 -325 -283 -269 0
-276 -227 -283 -269 0
-277 -326 -228 -284 0
-277 -326 -228 -270 0
-277 -326 -284 -270 0
-277 -228 -284 -270 0
-278 -327 -229 -285 0
-278 -327 -229 -271 0
-278 -327 -285 -271 0
-278 -229 -285 -271 0
-279 -328 -230 -286 0
-279 -328 -230 -272 0
-279 -328 -286 -272 0
-279 -230 -286 -272 0
-280 -329 -231 -287 0
-280 -329 -231 -273 0
-280 -329 -287 -273 0
-280 -231 -287 -273 0
281 282 283 284 285 286 287 0
-281 -282 0
-281 -283 0
-281 -284 0
-281 -285 0
-281 -286 0
-281 -287 0
-282 -283 0
-282 -284 0
-282 -285 0
-282 -286 0
-282 -287 0
-283 -284 0
-283 -285 0
-283 -286 0
-283 -287 0
-284 -285 0
-284 -286 0
-284 -287 0
-285 -286 0
-285 -287 0
-286 -287 0
-281 330 232 288 0
-281 330 232 274 0
-281 330 288 274 0
-281 232 288 274 0
-282 331 233 289 0
-282 331 233 275 0
-282 331 289 275 0
-282 233 289 275 0
-283 332 234 290 0
-283 332 234 276 0
-283 332 290 276 0
-283 234 290 276 0
-284 333 235 291 0
-284 333 235 277 0
-284 333 291 277 0
-284 235 291 277 0
-285 334 236 292 0
-285 334 236 278 0
-285 334 292 278 0
-285 236 292 278 0
-286 335 237 293 0
-286 335 237 279 0
-286 335 293 279 0
-286 237 293 279 0
-287 336 238 294 0
-287 336 238 280 0
-287 336 294 280 0
-287 238 294 280 0
-281 -330 -232 -288 0
-281 -330 -232 -274 0
-281 -330 -288 -274 0
-281 -232 -288 -274 0
-282 -331 -233 -289 0
-282 -331 -233 -275 0
-282 -331 -289 -275 0
-282 -233 -289 -275 0
-283 -332 -234 -290 0
-283 -332 -234 -276 0
-283 -332 -290 -276 0
-283 -234 -290 -276 0
-284 -333 -235 -291 0
-284 -333 -235 -277 0
-284 -333 -291 -277 0
-284 -235 -291 -277 0
-285 -334 -236 -292 0
-285 -334 -236 -278 0
-285 -334 -292 -278 0
-285 -236 -292 -278 0
-286 -335 -237 -293 0
-286 -335 -237 -279 0
-286 -335 -293 -279 0
-286 -237 -293 -279 0
-287 -336 -238 -294 0
-287 -336 -238 -280 0
-287 -336 -294 -280 0
-287 -238 -294 -280 0
288 289 290 291 292 293 294 0
-288 -289 0
-288 -290 0
-288 -291 0
-288 -292 0
-288 -293 0
-288 -294 0
-289 -290 0
-289 -291 0
-289 -292 0
-289 -293 0
-289 -294 0
-290 -291 0
-290 -292 0
-290 -293 0
-290 -294 0
-291 -292 0
-291 -293 0
-291 -294 0
-292 -293 0
-292 -294 0
-293 -294 0
-288 337 239 0
-288 337 281 0
-288 239 281 0
-289 338 240 0
-289 338 282 0
-289 240 282 0
-290 339 241 0
-290 339 283 0
-290 241 283 0
-291 340 242 0
-291 340 284 0
-291 242 284 0
-292 341 243 0
-292 341 285 0
-292 243 285 0
-293 342 244 0
-293 342 286 0
-293 244 286 0
-294 343 245 0
-294 343 287 0
-294 245 287 0
-288 -337 -239 -281 0
-289 -338 -240 -282 0
-290 -339 -241 -283 0
-291 -340 -242 -284 0
-292 -341 -243 -285 0
-293 -342 -244 -286 0
-294 -343 -245 -287 0
301 0
-295 0
-296 0
-297 0
-298 0
-299 0
-300 0
252 308 0
-252 -308 0
304 0
-302 0
-303 0
-305 0
-306 0
-307 0
-308 0
297 255 311 0
-297 -255 0
-297 -311 0
-255 -311 0
309 310 311 312 313 314 315 0
-309 -310 0
-309 -311 0
-309 -312 0
-309 -313 0
-309 -314 0
-309 -315 0
-310 -311 0
-310 -312 0
-310 -313 0
-310 -314 0
-310 -315 0
-311 -312 0
-311 -313 0
-311 -314 0
-311 -315 0
-312 -313 0
-312 -314 0
-312 -315 0
-313 -314 0
-313 -315 0
-314 -315 0
-309 302 260 0
-309 260 316 0
-309 302 316 0
-310 303 261 0
-310 261 317 0
-310 303 317 0
-311 304 262 0
-311 262 318 0
-311 304 318 0
-312 305 263 0
-312 263 319 0
-312 305 319 0
-313 306 264 0
-313 264 320 0
-313 306 320 0
-314 307 265 0
-314 265 321 0
-314 307 321 0
-315 308 266 0
-315 266 322 0
-315 308 322 0
-309 -260 -302 -316 0
-310 -261 -303 -317 0
-311 -262 -304 -318 0
-312 -263 -305 -319 0
-313 -264 -306 -320 0
-314 -265 -307 -321 0
-315 -266 -308 -322 0
316 317 318 319 320 321 322 0
-316 -317 0
-316 -318 0
-316 -319 0
-316 -320 0
-316 -321 0
-316 -322 0
-317 -318 0
-317 -319 0
-317 -320 0
-317 -321 0
-317 -322 0
-318 -319 0
-318 -320 0
-318 -321 0
-318 -322 0
-319 -320 0
-319 -321 0
-319 -322 0
-320 -321 0
-320 -322 0
-321 -322 0
-316 309 267 0
-316 267 323 0
-316 309 323 0
-317 310 268 0
-317 268 324 0
-317 310 324 0
-318 311 269 0
-318 269 325 0
-318 311 325 0
-319 312 270 0
-319 270 326 0
-319 312 326 0
-320 313 271 0
-320 271 327 0
-320 313 327 0
-321 314 272 0
-321 272 328 0
-321 314 328 0
-322 315 273 0
-322 273 329 0
-322 315 329 0
-316 -267 -309 -323 0
-317 -268 -310 -324 0
-318 -269 -311 -325 0
-319 -270 -312 -326 0
-320 -271 -313 -327 0
-321 -272 -314 -328 0
-322 -273 -315 -329 0
323 324 325 326 327 328 329 0
-323 -324 0
-323 -325 0
-323 -326 0
-323 -327 0
-323 -328 0
-323 -329 0
-324 -325 0
-324 -326 0
-324 -327 0
-324 -328 0
-324 -329 0
-325 -326 0
-325 -327 0
-325 -328 0
-325 -329 0
-326 -327 0
-326 -328 0
-326 -329 0
-327 -328 0
-327 -329 0
-328 -329 0
-323 316 274 0
-323 274 330 0
-323 316 330 0
-324 317 275 0
-324 275 331 0
-324 317 331 0
-325 318 276 0
-325 276 332 0
-325 318 332 0
-326 319 277 0
-326 277 333 0
-326 319 333 0
-327 320 278 0
-327 278 334 0
-327 320 334 0
-328 321 279 0
-328 279 335 0
-328 321 335 0
-329 322 280 0
-329 280 336 0
-329 322 336 0
-323 -274 -316 -330 0
-324 -275 -317 -331 0
-325 -276 -318 -332 0
-326 -277 -319 -333 0
-327 -278 -320 -334 0
-328 -279 -321 -335 0
-329 -280 -322 -336 0
330 331 332 333 334 335 336 0
-330 -331 0
-330 -332 0
-330 -333 0
-330 -334 0
-330 -335 0
-330 -336 0
-331 -332 0
-331 -333 0
-331 -334 0
-331 -335 0
-331 -336 0
-332 -333 0
-332 -334 0
-332 -335 0
-332 -336 0
-333 -334 0
-333 -335 0
-333 -336 0
-334 -335 0
-334 -336 0
-335 -336 0
-330 323 281 0
-330 281 337 0
-330 323 337 0
-331 324 282 0
-331 282 338 0
-331 324 338 0
-332 325 283 0
-332 283 339 0
-332 325 339 0
-333 326 284 0
-333 284 340 0
-333 326 340 0
-334 327 285 0
-334 285 341 0
-334 327 341 0
-335 328 286 0
-335 286 342 0
-335 328 342 0
-336 329 287 0
-336 287 343 0
-336 329 343 0
-330 -281 -323 -337 0
-331 -282 -324 -338 0
-332 -283 -325 -339 0
-333 -284 -326 -340 0
-334 -285 -327 -341 0
-335 -286 -328 -342 0
-336 -287 -329 -343 0
337 338 339 340 341 342 343 0
-337 -338 0
-337 -339 0
-337 -340 0
-337 -341 0
-337 -342 0
-337 -343 0
-338 -339 0
-338 -340 0
-338 -341 0
-338 -342 0
-338 -343 0
-339 -340 0
-339 -341 0
-339 -342 0
-339 -343 0
-340 -341 0
-340 -342 0
-340 -343 0
-341 -342 0
-341 -343 0
-342 -343 0
-337 288 0
-337 330 0
-338 289 0
-338 331 0
-339 290 0
-339 332 0
-340 291 0
-340 333 0
-341 292 0
-341 334 0
-342 293 0
-342 335 0
-343 294 0
-343 336 0
50 57 71 78 92 0
99 106 113 120 127 141 0
52 59 73 80 94 0
101 108 115 122 129 143 0
164 178 185 192 0
206 213 227 234 241 0
248 262 269 276 283 290 0
17 115 164 213 262 311 0
24 73 122 269 318 0
80 129 178 227 276 325 0
102 109 116 123 130 144 0
166 180 187 194 0
12 61 110 208 0
19 117 166 215 264 313 0
26 75 124 271 320 0
82 131 180 229 278 327 0
20 118 167 216 265 314 0